CMPL model generation - running

CMPL version: 1.11.0
Authors: Thomas Schleiff, Mike Steglich
Distributed under the GPLv3 

create model instance ...
write model instance ...
CMPL model generation - finished

Solver - running


Welcome to IBM(R) ILOG(R) CPLEX(R) Interactive Optimizer 12.7.1.0
  with Simplex, Mixed Integer & Barrier Optimizers
5725-A06 5725-A29 5724-Y48 5724-Y49 5724-Y54 5724-Y55 5655-Y21
Copyright IBM Corp. 1988, 2017.  All Rights Reserved.

Type 'help' for a list of available commands.
Type 'help' followed by a command name for more
information on commands.

CPLEX> Specified objective sense: MINIMIZE
Selected objective  name:  line[1]
Selected RHS        name:  RHS
Selected bound      name:  BOUND
Problem '/tmp/cmpl.T24173.mps' read.
Read time = 0.07 sec. (8.17 ticks)
CPLEX> CPXPARAM_Read_APIEncoding                        "UTF-8"
Tried aggregator 3 times.
MIP Presolve eliminated 19207 rows and 30643 columns.
MIP Presolve modified 340 coefficients.
Aggregator did 642 substitutions.
Reduced MIP has 2506 rows, 3308 columns, and 9642 nonzeros.
Reduced MIP has 3140 binaries, 0 generals, 0 SOSs, and 0 indicators.
Presolve time = 0.06 sec. (40.49 ticks)
Found incumbent of value 729.614041 after 0.11 sec. (63.20 ticks)
Probing fixed 13 vars, tightened 0 bounds.
Probing time = 0.02 sec. (4.30 ticks)
Tried aggregator 1 time.
MIP Presolve eliminated 0 rows and 13 columns.
MIP Presolve modified 62 coefficients.
Reduced MIP has 2506 rows, 3295 columns, and 9616 nonzeros.
Reduced MIP has 3295 binaries, 0 generals, 0 SOSs, and 0 indicators.
Presolve time = 0.02 sec. (8.21 ticks)
Probing time = 0.01 sec. (2.68 ticks)
Clique table members: 5930.
MIP emphasis: balance optimality and feasibility.
MIP search method: dynamic search.
Parallel mode: none, using 1 thread.
Root relaxation solution time = 0.01 sec. (4.81 ticks)

        Nodes                                         Cuts/
   Node  Left     Objective  IInf  Best Integer    Best Bound    ItCnt     Gap

*     0+    0                          729.6140      -40.3727           105.53%
      0     0      194.0571    10      729.6140      194.0571      150   73.40%
*     0+    0                          194.3428      194.0571             0.15%
      0     0      194.2675     2      194.3428      Cuts: 12      156    0.04%
*     0+    0                          194.3149      194.2675             0.02%
      0     0      194.2868     1      194.3149       Cuts: 6      161    0.01%
*     0+    0                          194.3139      194.2868             0.01%
      0     0        cutoff            194.3139      194.2868      161    0.01%
Elapsed time = 0.21 sec. (111.90 ticks, tree = 0.01 MB, solutions = 4)

GUB cover cuts applied:  3
Cover cuts applied:  9
Gomory fractional cuts applied:  6

Root node processing (before b&c):
  Real time             =    0.21 sec. (113.67 ticks)
Sequential b&c:
  Real time             =    0.00 sec. (0.00 ticks)
                          ------------
Total (root+branch&cut) =    0.21 sec. (113.67 ticks)

Solution pool: 4 solutions saved.

MIP - Integer optimal solution:  Objective =  1.9431390500e+02
Solution time =    0.21 sec.  Iterations = 161  Nodes = 0
Deterministic time = 113.77 ticks  (534.87 ticks/sec)

CPLEX> Incumbent solution written to file '/tmp/cmpl.T24173.gsol'.
CPLEX> 
CMPL: Time used for model generation: 1 seconds
CMPL: Time used for solving the model: 1 seconds


Solution written to ASCII file: results/output_generated_conf_0.5/2017-02-06-4/fair-nonlinear.sol

Solver - finished
